
Gurobi 9.0.1 (linux64) logging started Thu Apr 30 23:54:25 2020

Gurobi Optimizer version 9.0.1 build v9.0.1rc0 (linux64)
Optimize a model with 1072 rows, 842 columns and 4116 nonzeros
Model fingerprint: 0x91fd6bb8
Variable types: 0 continuous, 842 integer (810 binary)
Coefficient statistics:
  Matrix range     [1e+00, 8e+00]
  Objective range  [2e+00, 1e+02]
  Bounds range     [1e+00, 1e+00]
  RHS range        [1e+00, 9e+00]

User MIP start produced solution with objective 590 (0.00s)
Loaded user MIP start with objective 590

Presolve removed 242 rows and 204 columns
Presolve time: 0.02s
Presolved: 830 rows, 638 columns, 3360 nonzeros
Variable types: 0 continuous, 638 integer (610 binary)

Root relaxation: objective 3.742500e+02, 825 iterations, 0.05 seconds

    Nodes    |    Current Node    |     Objective Bounds      |     Work
 Expl Unexpl |  Obj  Depth IntInf | Incumbent    BestBd   Gap | It/Node Time

     0     0  374.25000    0   20  590.00000  374.25000  36.6%     -    0s
     0     0  448.00000    0   39  590.00000  448.00000  24.1%     -    0s
     0     0  448.00000    0   39  590.00000  448.00000  24.1%     -    0s
     0     0  448.00000    0   96  590.00000  448.00000  24.1%     -    0s
     0     0  448.00000    0   69  590.00000  448.00000  24.1%     -    0s
     0     0  448.30000    0   25  590.00000  448.30000  24.0%     -    0s
     0     0  448.56250    0   36  590.00000  448.56250  24.0%     -    0s
     0     0  448.56250    0   37  590.00000  448.56250  24.0%     -    0s
     0     0  451.00000    0   83  590.00000  451.00000  23.6%     -    0s
     0     0  451.00000    0   90  590.00000  451.00000  23.6%     -    0s
     0     0  451.00000    0   74  590.00000  451.00000  23.6%     -    0s
     0     0  451.00000    0   78  590.00000  451.00000  23.6%     -    0s
     0     0  451.00000    0   17  590.00000  451.00000  23.6%     -    0s
     0     0  451.00000    0   40  590.00000  451.00000  23.6%     -    0s
     0     0  451.00000    0   39  590.00000  451.00000  23.6%     -    0s
     0     0  451.00000    0   37  590.00000  451.00000  23.6%     -    0s
     0     0  451.00000    0   40  590.00000  451.00000  23.6%     -    0s
     0     0  451.00000    0   39  590.00000  451.00000  23.6%     -    0s
     0     0  451.00000    0   30  590.00000  451.00000  23.6%     -    0s
     0     0  451.00000    0   40  590.00000  451.00000  23.6%     -    0s
     0     0  451.00000    0   21  590.00000  451.00000  23.6%     -    0s
     0     0  451.00000    0   21  590.00000  451.00000  23.6%     -    0s
     0     2  451.00000    0   21  590.00000  451.00000  23.6%     -    0s
*   53    49              39     559.0000000  451.00000  19.3%  45.3    0s
H   57    33                     553.0000000  451.00000  18.4%  42.1    0s
H  192    75                     531.0000000  459.00000  13.6%  69.4    1s
H  246    71                     525.0000000  461.00000  12.2%  73.2    2s
H  381   124                     524.0000000  461.00000  12.0%   101    3s
   511   191  488.00000   11   21  524.00000  468.25000  10.6%   102    5s
   691   268  502.50000   23  159  524.00000  499.66667  4.64%   110   10s
H  937   342                     522.0000000  500.00000  4.21%   102   12s
H  964   224                     514.0000000  500.04527  2.71%   103   13s
  1115   248  503.16007   20  226  514.00000  500.43164  2.64%   106   15s
  1437   392  501.27907   19  188  514.00000  501.00000  2.53%   111   20s
H 1491   396                     512.9999977  501.03668  2.33%   110   20s
  1709   456  507.53501   25  314  513.00000  501.68699  2.21%   116   25s
H 1830   435                     512.0000000  502.00000  1.95%   118   27s
  1949   474  502.34150   21  344  512.00000  502.01084  1.95%   122   30s
  2143   540  509.85988   29  233  512.00000  502.24590  1.91%   129   35s
  2410   585  504.64386   26  100  512.00000  502.58630  1.84%   134   40s
  2690   597  503.27004   23  207  512.00000  503.04167  1.75%   141   45s
  2995   604  508.64912   31  251  512.00000  503.79430  1.60%   142   50s
  3267   598  510.31111   38   85  512.00000  504.34644  1.49%   142   55s
  3636   604  507.60414   30  246  512.00000  504.95097  1.38%   142   60s
  4044   600  509.09854   33  106  512.00000  505.55084  1.26%   141   65s
  4445   586  508.33485   29  193  512.00000  506.00000  1.17%   139   70s
  4824   584  507.74462   33  234  512.00000  506.28025  1.12%   138   75s
  5299   546  508.40297   28  206  512.00000  506.64500  1.05%   135   80s
  5729   541  509.74668   30  107  512.00000  506.89776  1.00%   134   85s
  6105   493  510.20767   32  279  512.00000  507.22917  0.93%   133   90s
  6623   446  508.48146   30  212  512.00000  507.61450  0.86%   130   95s
  7199   357  510.46407   28  154  512.00000  508.22120  0.74%   127  100s
  7586   255  510.70833   37   77  512.00000  508.72705  0.64%   126  105s

Cutting planes:
  Learned: 6
  Gomory: 7
  Cover: 26
  Implied bound: 148
  Projected implied bound: 1
  Clique: 2
  MIR: 11
  StrongCG: 1
  Flow cover: 42
  GUB cover: 2
  Inf proof: 55
  Zero half: 22
  RLT: 3
  Relax-and-lift: 4

Explored 8078 nodes (1007405 simplex iterations) in 108.75 seconds
Thread count was 1 (of 40 available processors)

Solution count 10: 512 513 514 ... 590

Optimal solution found (tolerance 1.00e-04)
Best objective 5.120000000000e+02, best bound 5.120000000000e+02, gap 0.0000%

User-callback calls 38178, time in user-callback 0.09 sec
